
(set-logic ALL) 

(declare-datatype MyList ((Nil) (Cons (head Real) (tail MyList)) )) 
(declare-fun l0 () MyList) 
(declare-fun l1 () MyList) 
(declare-fun l2 () MyList) 
(declare-fun l3 () MyList) 
(declare-fun i0 () Real) 
(declare-fun i1 () Real) 
(assert (and (= l3 l1) (= l0 Nil) (is-Cons l0) (= l0 l1)) )
(assert (= l2 l3) )
(assert (is-Cons Nil) )
(assert (is-Cons Nil) )
(assert (or (is-Nil l0) (= l2 l1) (is-Cons Nil)) )
(assert (not (= l2 Nil)) )
(assert (= l2 l0) )
(assert (not (is-Cons l3)) )
(check-sat)
